p cnf 60 615
1 6 11 16 21 26 31 36 41 46 51 56 0
2 7 12 17 22 27 32 37 42 47 52 57 0
3 8 13 18 23 28 33 38 43 48 53 58 0
4 9 14 19 24 29 34 39 44 49 54 59 0
5 10 15 20 25 30 35 40 45 50 55 60 0
-1 -17 0
-1 -18 0
-1 -19 0
-1 -20 0
-2 -18 0
-2 -19 0
-2 -20 0
-3 -19 0
-3 -20 0
-4 -20 0
-1 -52 0
-1 -53 0
-1 -54 0
-1 -55 0
-2 -53 0
-2 -54 0
-2 -55 0
-3 -54 0
-3 -55 0
-4 -55 0
-6 -12 0
-6 -13 0
-6 -14 0
-6 -15 0
-7 -13 0
-7 -14 0
-7 -15 0
-8 -14 0
-8 -15 0
-9 -15 0
-11 -7 0
-11 -8 0
-11 -9 0
-11 -10 0
-12 -8 0
-12 -9 0
-12 -10 0
-13 -9 0
-13 -10 0
-14 -10 0
-11 -47 0
-11 -48 0
-11 -49 0
-11 -50 0
-12 -48 0
-12 -49 0
-12 -50 0
-13 -49 0
-13 -50 0
-14 -50 0
-16 -2 0
-16 -3 0
-16 -4 0
-16 -5 0
-17 -3 0
-17 -4 0
-17 -5 0
-18 -4 0
-18 -5 0
-19 -5 0
-26 -42 0
-26 -43 0
-26 -44 0
-26 -45 0
-27 -43 0
-27 -44 0
-27 -45 0
-28 -44 0
-28 -45 0
-29 -45 0
-31 -42 0
-31 -43 0
-31 -44 0
-31 -45 0
-32 -43 0
-32 -44 0
-32 -45 0
-33 -44 0
-33 -45 0
-34 -45 0
-41 -27 0
-41 -28 0
-41 -29 0
-41 -30 0
-42 -28 0
-42 -29 0
-42 -30 0
-43 -29 0
-43 -30 0
-44 -30 0
-41 -32 0
-41 -33 0
-41 -34 0
-41 -35 0
-42 -33 0
-42 -34 0
-42 -35 0
-43 -34 0
-43 -35 0
-44 -35 0
-46 -12 0
-46 -13 0
-46 -14 0
-46 -15 0
-47 -13 0
-47 -14 0
-47 -15 0
-48 -14 0
-48 -15 0
-49 -15 0
-46 -57 0
-46 -58 0
-46 -59 0
-46 -60 0
-47 -58 0
-47 -59 0
-47 -60 0
-48 -59 0
-48 -60 0
-49 -60 0
-51 -2 0
-51 -3 0
-51 -4 0
-51 -5 0
-52 -3 0
-52 -4 0
-52 -5 0
-53 -4 0
-53 -5 0
-54 -5 0
-51 -57 0
-51 -58 0
-51 -59 0
-51 -60 0
-52 -58 0
-52 -59 0
-52 -60 0
-53 -59 0
-53 -60 0
-54 -60 0
-56 -47 0
-56 -48 0
-56 -49 0
-56 -50 0
-57 -48 0
-57 -49 0
-57 -50 0
-58 -49 0
-58 -50 0
-59 -50 0
-56 -52 0
-56 -53 0
-56 -54 0
-56 -55 0
-57 -53 0
-57 -54 0
-57 -55 0
-58 -54 0
-58 -55 0
-59 -55 0
-1 -2 0
-6 -7 0
-11 -12 0
-16 -17 0
-21 -22 0
-26 -27 0
-31 -32 0
-36 -37 0
-41 -42 0
-46 -47 0
-51 -52 0
-56 -57 0
-1 -3 0
-6 -8 0
-11 -13 0
-16 -18 0
-21 -23 0
-26 -28 0
-31 -33 0
-36 -38 0
-41 -43 0
-46 -48 0
-51 -53 0
-56 -58 0
-1 -4 0
-6 -9 0
-11 -14 0
-16 -19 0
-21 -24 0
-26 -29 0
-31 -34 0
-36 -39 0
-41 -44 0
-46 -49 0
-51 -54 0
-56 -59 0
-1 -5 0
-6 -10 0
-11 -15 0
-16 -20 0
-21 -25 0
-26 -30 0
-31 -35 0
-36 -40 0
-41 -45 0
-46 -50 0
-51 -55 0
-56 -60 0
-2 -3 0
-7 -8 0
-12 -13 0
-17 -18 0
-22 -23 0
-27 -28 0
-32 -33 0
-37 -38 0
-42 -43 0
-47 -48 0
-52 -53 0
-57 -58 0
-2 -4 0
-7 -9 0
-12 -14 0
-17 -19 0
-22 -24 0
-27 -29 0
-32 -34 0
-37 -39 0
-42 -44 0
-47 -49 0
-52 -54 0
-57 -59 0
-2 -5 0
-7 -10 0
-12 -15 0
-17 -20 0
-22 -25 0
-27 -30 0
-32 -35 0
-37 -40 0
-42 -45 0
-47 -50 0
-52 -55 0
-57 -60 0
-3 -4 0
-8 -9 0
-13 -14 0
-18 -19 0
-23 -24 0
-28 -29 0
-33 -34 0
-38 -39 0
-43 -44 0
-48 -49 0
-53 -54 0
-58 -59 0
-3 -5 0
-8 -10 0
-13 -15 0
-18 -20 0
-23 -25 0
-28 -30 0
-33 -35 0
-38 -40 0
-43 -45 0
-48 -50 0
-53 -55 0
-58 -60 0
-4 -5 0
-9 -10 0
-14 -15 0
-19 -20 0
-24 -25 0
-29 -30 0
-34 -35 0
-39 -40 0
-44 -45 0
-49 -50 0
-54 -55 0
-59 -60 0
-1 -6 0
-1 -11 0
-1 -16 0
-1 -21 0
-1 -26 0
-1 -31 0
-1 -36 0
-1 -41 0
-1 -46 0
-1 -51 0
-1 -56 0
-6 -11 0
-6 -16 0
-6 -21 0
-6 -26 0
-6 -31 0
-6 -36 0
-6 -41 0
-6 -46 0
-6 -51 0
-6 -56 0
-11 -16 0
-11 -21 0
-11 -26 0
-11 -31 0
-11 -36 0
-11 -41 0
-11 -46 0
-11 -51 0
-11 -56 0
-16 -21 0
-16 -26 0
-16 -31 0
-16 -36 0
-16 -41 0
-16 -46 0
-16 -51 0
-16 -56 0
-21 -26 0
-21 -31 0
-21 -36 0
-21 -41 0
-21 -46 0
-21 -51 0
-21 -56 0
-26 -31 0
-26 -36 0
-26 -41 0
-26 -46 0
-26 -51 0
-26 -56 0
-31 -36 0
-31 -41 0
-31 -46 0
-31 -51 0
-31 -56 0
-36 -41 0
-36 -46 0
-36 -51 0
-36 -56 0
-41 -46 0
-41 -51 0
-41 -56 0
-46 -51 0
-46 -56 0
-51 -56 0
-2 -7 0
-2 -12 0
-2 -17 0
-2 -22 0
-2 -27 0
-2 -32 0
-2 -37 0
-2 -42 0
-2 -47 0
-2 -52 0
-2 -57 0
-7 -12 0
-7 -17 0
-7 -22 0
-7 -27 0
-7 -32 0
-7 -37 0
-7 -42 0
-7 -47 0
-7 -52 0
-7 -57 0
-12 -17 0
-12 -22 0
-12 -27 0
-12 -32 0
-12 -37 0
-12 -42 0
-12 -47 0
-12 -52 0
-12 -57 0
-17 -22 0
-17 -27 0
-17 -32 0
-17 -37 0
-17 -42 0
-17 -47 0
-17 -52 0
-17 -57 0
-22 -27 0
-22 -32 0
-22 -37 0
-22 -42 0
-22 -47 0
-22 -52 0
-22 -57 0
-27 -32 0
-27 -37 0
-27 -42 0
-27 -47 0
-27 -52 0
-27 -57 0
-32 -37 0
-32 -42 0
-32 -47 0
-32 -52 0
-32 -57 0
-37 -42 0
-37 -47 0
-37 -52 0
-37 -57 0
-42 -47 0
-42 -52 0
-42 -57 0
-47 -52 0
-47 -57 0
-52 -57 0
-3 -8 0
-3 -13 0
-3 -18 0
-3 -23 0
-3 -28 0
-3 -33 0
-3 -38 0
-3 -43 0
-3 -48 0
-3 -53 0
-3 -58 0
-8 -13 0
-8 -18 0
-8 -23 0
-8 -28 0
-8 -33 0
-8 -38 0
-8 -43 0
-8 -48 0
-8 -53 0
-8 -58 0
-13 -18 0
-13 -23 0
-13 -28 0
-13 -33 0
-13 -38 0
-13 -43 0
-13 -48 0
-13 -53 0
-13 -58 0
-18 -23 0
-18 -28 0
-18 -33 0
-18 -38 0
-18 -43 0
-18 -48 0
-18 -53 0
-18 -58 0
-23 -28 0
-23 -33 0
-23 -38 0
-23 -43 0
-23 -48 0
-23 -53 0
-23 -58 0
-28 -33 0
-28 -38 0
-28 -43 0
-28 -48 0
-28 -53 0
-28 -58 0
-33 -38 0
-33 -43 0
-33 -48 0
-33 -53 0
-33 -58 0
-38 -43 0
-38 -48 0
-38 -53 0
-38 -58 0
-43 -48 0
-43 -53 0
-43 -58 0
-48 -53 0
-48 -58 0
-53 -58 0
-4 -9 0
-4 -14 0
-4 -19 0
-4 -24 0
-4 -29 0
-4 -34 0
-4 -39 0
-4 -44 0
-4 -49 0
-4 -54 0
-4 -59 0
-9 -14 0
-9 -19 0
-9 -24 0
-9 -29 0
-9 -34 0
-9 -39 0
-9 -44 0
-9 -49 0
-9 -54 0
-9 -59 0
-14 -19 0
-14 -24 0
-14 -29 0
-14 -34 0
-14 -39 0
-14 -44 0
-14 -49 0
-14 -54 0
-14 -59 0
-19 -24 0
-19 -29 0
-19 -34 0
-19 -39 0
-19 -44 0
-19 -49 0
-19 -54 0
-19 -59 0
-24 -29 0
-24 -34 0
-24 -39 0
-24 -44 0
-24 -49 0
-24 -54 0
-24 -59 0
-29 -34 0
-29 -39 0
-29 -44 0
-29 -49 0
-29 -54 0
-29 -59 0
-34 -39 0
-34 -44 0
-34 -49 0
-34 -54 0
-34 -59 0
-39 -44 0
-39 -49 0
-39 -54 0
-39 -59 0
-44 -49 0
-44 -54 0
-44 -59 0
-49 -54 0
-49 -59 0
-54 -59 0
-5 -10 0
-5 -15 0
-5 -20 0
-5 -25 0
-5 -30 0
-5 -35 0
-5 -40 0
-5 -45 0
-5 -50 0
-5 -55 0
-5 -60 0
-10 -15 0
-10 -20 0
-10 -25 0
-10 -30 0
-10 -35 0
-10 -40 0
-10 -45 0
-10 -50 0
-10 -55 0
-10 -60 0
-15 -20 0
-15 -25 0
-15 -30 0
-15 -35 0
-15 -40 0
-15 -45 0
-15 -50 0
-15 -55 0
-15 -60 0
-20 -25 0
-20 -30 0
-20 -35 0
-20 -40 0
-20 -45 0
-20 -50 0
-20 -55 0
-20 -60 0
-25 -30 0
-25 -35 0
-25 -40 0
-25 -45 0
-25 -50 0
-25 -55 0
-25 -60 0
-30 -35 0
-30 -40 0
-30 -45 0
-30 -50 0
-30 -55 0
-30 -60 0
-35 -40 0
-35 -45 0
-35 -50 0
-35 -55 0
-35 -60 0
-40 -45 0
-40 -50 0
-40 -55 0
-40 -60 0
-45 -50 0
-45 -55 0
-45 -60 0
-50 -55 0
-50 -60 0
-55 -60 0
